\ Model Master problem
\ LP format - for model browsing. Use MPS format to capture full model detail.
Minimize
  1168.862359449926 y[0]
Subject To
 R0: y[0] = 1
 R1: y[0] = 1
 R2: y[0] = 1
 R3: y[0] = 1
 R4: y[0] = 1
 R5: y[0] = 1
 R6: y[0] = 1
 R7: y[0] = 1
 R8: y[0] = 1
 R9: y[0] = 1
 R10: y[0] = 1
 R11: y[0] = 1
 R12: y[0] = 1
 R13: y[0] = 1
 R14: y[0] = 1
 R15: y[0] = 1
 R16: y[0] = 1
 R17: y[0] = 1
 R18: y[0] = 1
 R19: y[0] = 1
 R20: y[0] = 1
 R21: y[0] = 1
 R22: y[0] = 1
 R23: y[0] = 1
 R24: y[0] = 1
 R25: y[0] = 1
 R26: y[0] = 1
 R27: y[0] = 1
 R28: y[0] = 1
 R29: y[0] = 1
 R30: y[0] = 1
 R31: y[0] = 1
 R32: y[0] = 1
 R33: y[0] = 1
 R34: y[0] = 1
 R35: y[0] = 1
 R36: y[0] = 1
 R37: y[0] = 1
 R38: y[0] = 1
 R39: y[0] = 1
 R40: y[0] = 1
 R41: y[0] = 1
 R42: y[0] = 1
 R43: y[0] = 1
 R44: y[0] = 1
 R45: y[0] = 1
 R46: y[0] = 1
 R47: y[0] = 1
 R48: y[0] = 1
 R49: y[0] = 1
 R50: y[0] >= 0
Bounds
End
